\* The_Optimization_Problem_yearly *\
Maximize
optimering_CO2: 44032 x0 + 602240 x1 + 798060 x2 + 1128128 x3
Subject To
Investering: 960000 x0 + 400000 x1 + 572400 x2 + 521400 x3 <= 2000000
Binaries
x0
x1
x2
x3
End
